
Gurobi 9.1.2 (win64) logging started Tue Dec  7 13:38:54 2021

Gurobi Optimizer version 9.1.2 build v9.1.2rc0 (win64)
Thread count: 8 physical cores, 8 logical processors, using up to 8 threads
Optimize a model with 1 rows, 26 columns and 25 nonzeros
Model fingerprint: 0x15ed3ce0
Variable types: 1 continuous, 25 integer (25 binary)
Coefficient statistics:
  Matrix range     [1e+00, 1e+01]
  Objective range  [1e+00, 1e+00]
  Bounds range     [2e+01, 2e+01]
  RHS range        [1e+01, 1e+01]
Presolve time: 0.00s
Presolved: 1 rows, 26 columns, 25 nonzeros
Variable types: 1 continuous, 25 integer (25 binary)

Root simplex log...

Iteration    Objective       Primal Inf.    Dual Inf.      Time
       0   -2.3929764e+01   4.751975e-02   0.000000e+00     14s
       2   -2.3929764e+01   0.000000e+00   0.000000e+00     14s

Root relaxation: objective -2.392976e+01, 2 iterations, 0.00 seconds

    Nodes    |    Current Node    |     Objective Bounds      |     Work
 Expl Unexpl |  Obj  Depth IntInf | Incumbent    BestBd   Gap | It/Node Time

     0     0  -23.92976    0    1          -  -23.92976      -     -   14s
H    0     0                      -0.5745952  -23.92976  4065%     -   14s
H    0     0                      -2.9064333  -23.92976   723%     -   14s
     0     0  -23.92976    0    4   -2.90643  -23.92976   723%     -   14s
H    0     0                     -23.9297641  -23.92976  0.00%     -   14s

Cutting planes:
  MIR: 1
  RLT: 1
  Lazy constraints: 5

Explored 1 nodes (13 simplex iterations) in 14.77 seconds
Thread count was 8 (of 8 available processors)

Solution count 3: -23.9298 -2.90643 -0.574595 
No other solutions better than -23.9298

Optimal solution found (tolerance 1.00e-04)
Best objective -2.392976407896e+01, best bound -2.392976407896e+01, gap 0.0000%

User-callback calls 89, time in user-callback 18.44 sec
